Route #1: 26 67 42 86 53 181 170 108 43 41 38 111
Route #2: 60 107 69 159 77 9 183 182 93 30 2 28
Route #3: 24 4 177 64 117 132 34 120 123 143 153 166 152
Route #4: 14 158 73 8 119 33 104 140 49 126 173 85
Route #5: 171 13 176 58 155 68 172
Route #6: 99 84 27 89 98 151 122 139 102 97 82 175
Route #7: 47 125 137 169 146 76 46 57 62 56 167 141 127
Route #8: 22 31 32 23 105 109 25 160 133 6 10 131 130
Route #9: 87 52 114 142 156 79 113 178 174 96 101 40
Route #10: 100 115 118 36 61 157 17 80 110 149 3 161
Route #11: 16 19 35 180 11 94 54 112 20 66 135 71 184
Route #12: 165 148 63 70 179 48 55 147 21 138 44 92 50 65
Route #13: 154 5 162 168 145 95 91 45 128 74 12 129
Route #14: 39 29 150 106 81 75 78 134 83 51 136 164 72
Route #15: 124 88 59 37 15 185 7 90 1 144 163 103 116 18 121
Cost 24149.000000